449 450 451 455 
509 510 511 515 
569 570 571 575 
628 629 630 634 
688 689 690 694 
722 723 724 728 
752 753 754 758 
782 783 784 788 
812 813 814 818 
842 843 844 848 
872 873 874 878 
902 903 904 908 
932 933 934 938 
962 963 964 968 
992 993 994 998 
1022 1023 1024 1028 
1082 1083 1084 1088 
1142 1143 1144 1148 
1202 1203 1204 1208 
1262 1263 1264 1268 
1322 1323 1324 1328 
1382 1383 1384 1388 
1442 1443 1444 1448 
